\* Minmax Problem *\
Minimize
Minimize_the_maximum: __dummy
Subject To
_dummy: __dummy = 0
Max_constraint_0: __dummy >= 4352013843.89
Max_constraint_1: __dummy >= 220731.99
Max_constraint_10: __dummy >= 7630268.99
Max_constraint_11: __dummy >= 15804302.99
Max_constraint_12: __dummy >= -1808076.01
Max_constraint_13: __dummy >= -631974.01
Max_constraint_14: __dummy >= 20420591.99
Max_constraint_15: __dummy >= 10923403.99
Max_constraint_16: __dummy >= -1719866.01
Max_constraint_17: __dummy >= -1690483.01
Max_constraint_18: __dummy >= -2013915.01
Max_constraint_19: __dummy >= -1896284.01
Max_constraint_2: __dummy >= -573168.01
Max_constraint_20: __dummy >= 7836108.99
Max_constraint_3: __dummy >= 5483849.99
Max_constraint_4: __dummy >= 4160713.99
Max_constraint_5: __dummy >= -955407.01
Max_constraint_6: __dummy >= 4395957.99
Max_constraint_7: __dummy >= -1073019.01
Max_constraint_8: __dummy >= -778987.01
Max_constraint_9: __dummy >= 24095964.99
Bounds
__dummy = 0
End
